c FILE /home/rafael/Documents/HappySet/MIHS/inputs/happygen/output/graph_scale_free_k7_p0.3_v100_20241127_083857.txt
c SOURCE This is a scale-free graph formed for the happy graph colouring problem.
c DESCRIPTION It was generated using the problem generator of Rhyd Lewis
c
c GRAPH STATS
c Seed                             = 505110533
c Number of Nodes                  = 100
c Number of colours k              = 7
c Number of pre-assignments        = 30
c Number of links per new node     = 5
c Density                          = 0.0979798
c 
c The degrees of nodes 1 to 100, respectively, are as follows 
c [34, 32, 31, 28, 28, 26, 25, 24, 23, 22, 19, 19, 18, 17, 17, 16, 15, 15, 13, 13, 13, 12, 12, 11, 11, 11, 
c  10, 10, 10, 9, 9, 9, 9, 8, 8, 8, 8, 8, 8, 8, 8, 7, 7, 7, 7, 7, 7, 7, 7, 7, 7, 
c  7, 6, 6, 6, 6, 6, 6, 6, 6, 6, 6, 6, 6, 6, 6, 6, 6, 6, 6, 5, 5, 5, 5, 5, 5, 
c  5, 5, 5, 5, 5, 5, 5, 5, 5, 5, 5, 5, 5, 5, 5, 5, 5, 5, 5, 5, 5, 5, 5, 5] 
c  
p edge 100 485 7
e 1 2
e 1 3
e 1 4
e 1 5
e 1 7
e 1 8
e 1 10
e 1 12
e 1 14
e 1 16
e 1 18
e 1 21
e 1 24
e 1 25
e 1 26
e 1 30
e 1 33
e 1 35
e 1 38
e 1 43
e 1 44
e 1 48
e 1 51
e 1 53
e 1 54
e 1 57
e 1 59
e 1 64
e 1 71
e 1 79
e 1 82
e 1 86
e 1 90
e 1 99
e 2 3
e 2 4
e 2 5
e 2 6
e 2 7
e 2 8
e 2 10
e 2 11
e 2 13
e 2 16
e 2 19
e 2 20
e 2 21
e 2 23
e 2 27
e 2 29
e 2 31
e 2 38
e 2 40
e 2 43
e 2 48
e 2 49
e 2 51
e 2 55
e 2 57
e 2 69
e 2 70
e 2 77
e 2 80
e 2 89
e 2 93
e 3 4
e 3 6
e 3 7
e 3 8
e 3 10
e 3 11
e 3 12
e 3 19
e 3 22
e 3 25
e 3 28
e 3 30
e 3 35
e 3 36
e 3 37
e 3 42
e 3 43
e 3 46
e 3 47
e 3 52
e 3 60
e 3 65
e 3 73
e 3 74
e 3 79
e 3 93
e 3 94
e 3 97
e 3 100
e 4 5
e 4 6
e 4 7
e 4 8
e 4 9
e 4 10
e 4 14
e 4 17
e 4 23
e 4 27
e 4 34
e 4 37
e 4 46
e 4 51
e 4 58
e 4 61
e 4 63
e 4 68
e 4 71
e 4 72
e 4 77
e 4 94
e 4 95
e 4 96
e 4 100
e 5 7
e 5 9
e 5 10
e 5 11
e 5 21
e 5 25
e 5 26
e 5 29
e 5 30
e 5 31
e 5 34
e 5 43
e 5 45
e 5 47
e 5 48
e 5 49
e 5 50
e 5 53
e 5 67
e 5 71
e 5 76
e 5 83
e 5 84
e 5 91
e 5 94
e 6 8
e 6 9
e 6 10
e 6 11
e 6 12
e 6 13
e 6 14
e 6 15
e 6 18
e 6 20
e 6 23
e 6 26
e 6 32
e 6 33
e 6 37
e 6 39
e 6 49
e 6 55
e 6 56
e 6 59
e 6 76
e 6 87
e 6 94
e 7 9
e 7 10
e 7 13
e 7 19
e 7 27
e 7 28
e 7 30
e 7 37
e 7 42
e 7 45
e 7 46
e 7 55
e 7 62
e 7 66
e 7 70
e 7 75
e 7 81
e 7 83
e 7 93
e 7 97
e 8 10
e 8 13
e 8 14
e 8 17
e 8 22
e 8 24
e 8 27
e 8 33
e 8 39
e 8 47
e 8 54
e 8 59
e 8 64
e 8 73
e 8 77
e 8 78
e 8 83
e 8 84
e 8 85
e 9 16
e 9 18
e 9 22
e 9 24
e 9 28
e 9 30
e 9 31
e 9 50
e 9 52
e 9 54
e 9 58
e 9 63
e 9 68
e 9 70
e 9 74
e 9 82
e 9 91
e 9 94
e 9 97
e 10 12
e 10 13
e 10 22
e 10 25
e 10 27
e 10 29
e 10 31
e 10 33
e 10 41
e 10 51
e 10 74
e 10 75
e 10 78
e 10 79
e 11 14
e 11 17
e 11 25
e 11 36
e 11 42
e 11 43
e 11 44
e 11 48
e 11 54
e 11 60
e 11 66
e 11 67
e 11 83
e 11 92
e 11 100
e 12 15
e 12 16
e 12 24
e 12 27
e 12 34
e 12 39
e 12 45
e 12 47
e 12 53
e 12 64
e 12 76
e 12 78
e 12 81
e 12 93
e 12 98
e 13 14
e 13 20
e 13 23
e 13 34
e 13 41
e 13 44
e 13 50
e 13 53
e 13 55
e 13 57
e 13 71
e 13 84
e 13 87
e 14 15
e 14 19
e 14 23
e 14 24
e 14 30
e 14 34
e 14 35
e 14 54
e 14 79
e 14 87
e 14 96
e 15 18
e 15 19
e 15 23
e 15 25
e 15 28
e 15 29
e 15 35
e 15 36
e 15 40
e 15 47
e 15 75
e 15 86
e 15 92
e 15 100
e 16 32
e 16 36
e 16 37
e 16 40
e 16 49
e 16 54
e 16 55
e 16 59
e 16 72
e 16 86
e 16 87
e 16 92
e 17 21
e 17 22
e 17 24
e 17 40
e 17 53
e 17 61
e 17 65
e 17 73
e 17 80
e 17 86
e 17 89
e 17 98
e 18 23
e 18 39
e 18 44
e 18 48
e 18 49
e 18 56
e 18 61
e 18 62
e 18 75
e 18 81
e 18 85
e 19 56
e 19 58
e 19 59
e 19 62
e 19 65
e 19 72
e 19 84
e 19 96
e 20 25
e 20 28
e 20 34
e 20 38
e 20 61
e 20 65
e 20 67
e 20 70
e 20 84
e 20 85
e 21 26
e 21 30
e 21 46
e 21 56
e 21 57
e 21 68
e 21 77
e 21 86
e 21 91
e 22 30
e 22 33
e 22 42
e 22 72
e 22 83
e 22 89
e 22 91
e 23 40
e 23 42
e 23 65
e 23 71
e 23 99
e 24 32
e 24 44
e 24 45
e 24 51
e 24 73
e 25 26
e 25 45
e 25 78
e 25 92
e 26 41
e 26 69
e 26 77
e 26 78
e 26 90
e 26 96
e 27 39
e 27 50
e 27 57
e 27 91
e 28 52
e 28 58
e 28 60
e 28 66
e 28 85
e 29 31
e 29 56
e 29 73
e 29 74
e 29 87
e 29 95
e 30 88
e 31 32
e 31 34
e 31 61
e 31 76
e 32 60
e 32 66
e 32 88
e 32 89
e 32 90
e 33 68
e 33 82
e 33 98
e 33 99
e 34 58
e 35 36
e 35 53
e 35 66
e 35 100
e 36 38
e 36 46
e 36 63
e 37 62
e 37 74
e 37 95
e 38 43
e 38 60
e 38 96
e 38 98
e 39 63
e 39 69
e 39 95
e 40 67
e 40 75
e 40 81
e 41 46
e 41 62
e 41 68
e 41 69
e 41 99
e 42 79
e 42 88
e 43 82
e 44 60
e 44 95
e 45 50
e 45 67
e 46 90
e 47 52
e 47 90
e 48 62
e 48 80
e 49 93
e 49 97
e 50 64
e 50 69
e 51 52
e 51 64
e 52 80
e 52 98
e 55 63
e 56 99
e 57 97
e 58 76
e 59 72
e 61 81
e 63 70
e 64 89
e 65 80
e 66 82
e 67 88
e 68 85
e 69 92
e 70 88
n 4 1
n 7 1
n 16 2
n 23 1
n 25 4
n 30 1
n 33 3
n 39 1
n 41 1
n 46 1
n 54 2
n 57 4
n 59 2
n 61 1
n 62 1
n 70 1
n 74 6
n 76 4
n 79 1
n 80 5
n 83 1
n 85 7
n 86 2
n 88 1
n 89 5
n 90 1
n 91 6
n 93 1
n 95 1
n 98 3
